&CONTROL
   calculation      = 'vc-relax'
   pseudo_dir       = '../../src/pseudos/'
/
&SYSTEM
   tot_charge       = 0.0
   ecutwfc          = 35.0
   ecutrho          = 140.0
   degauss          = 0.1
   smearing         = 'mv'
   ntyp             = 3
   nat              = 14
   ibrav            = 0
/
&ELECTRONS
   conv_thr         = 0.005
/
&IONS
   ion_dynamics     = 'bfgs'
/
&CELL
   cell_dynamics    = 'bfgs'
   cell_dofree      = 'all'
/

ATOMIC_SPECIES
Mo 95.95 Mo_ONCV_PBE-1.0.oncvpsp.upf
S 32.06 s_pbe_v1.4.uspp.F.UPF
H 1.008 H.pbe-rrkjus_psl.1.0.0.UPF

K_POINTS gamma

CELL_PARAMETERS angstrom
6.38064000000000 0.00000000000000 0.00000000000000
-3.19032000000000 5.52579633240314 0.00000000000000
0.00000000000000 0.00000000000000 20.00000000000000

ATOMIC_POSITIONS angstrom
Mo -0.0000159516 1.8419413205 10.0000000000 
S 1.5951759516 0.9209568457 8.4352000000 
S 1.5951759516 0.9209568457 11.5648000000 
Mo -1.5951759516 4.6048394867 10.0000000000 
S 0.0000159516 3.6838550119 8.4352000000 
S 0.0000159516 3.6838550119 11.5648000000 
Mo 3.1903040484 1.8419413205 10.0000000000 
S 4.7854959516 0.9209568457 8.4352000000 
S 4.7854959516 0.9209568457 11.5648000000 
Mo 1.5951440484 4.6048394867 10.0000000000 
S 3.1903359516 3.6838550119 8.4352000000 
S 3.1903359516 3.6838550119 11.5648000000 
H 1.5951759516 0.9209568457 7.4352000000 
H 1.5951759516 0.9209568457 12.5648000000 

