&CONTROL
   calculation      = 'vc-relax'
   pseudodir        = './sssp'
/
&SYSTEM
   ntyp             = 3
   nat              = 13
   ibrav            = 0
/
&ELECTRONS
   conv_thr         = 5e-09
/
&IONS
   ion_dynamics     = 'bfgs'
/
&CELL
   cell_dynamics    = 'bfgs'
   cell_dofree      = 'all'
/

ATOMIC_SPECIES
Mo 95.95 Mo_dummy.UPF
S 32.06 S_dummy.UPF
H 1.008 H_dummy.UPF

K_POINTS automatic
g a m  0 0 0

CELL_PARAMETERS angstrom
6.38064000000000 0.00000000000000 0.00000000000000
-3.19032000000000 5.52579633240314 0.00000000000000
0.00000000000000 0.00000000000000 20.00000000000000

ATOMIC_POSITIONS angstrom
Mo -0.0000638064 1.8419689494 10.0000000000 
S 1.5951919032 0.9209844747 8.4352000000 
S 1.5951919032 0.9209844747 11.5648000000 
Mo -1.5951919032 4.6048118577 10.0000000000 
S 0.0000319032 3.6838826409 8.4352000000 
S 0.0000319032 3.6838826409 11.5648000000 
Mo 3.1902561936 1.8419689494 10.0000000000 
S 4.7855119032 0.9209844747 8.4352000000 
S 4.7855119032 0.9209844747 11.5648000000 
Mo 1.5951280968 4.6048118577 10.0000000000 
S 3.1903519032 3.6838826409 8.4352000000 
S 3.1903519032 3.6838826409 11.5648000000 
H 4.7855119032 0.9209844747 12.5648000000 

