&CONTROL
   calculation      = 'vc-relax'
   pseudo_dir       = '../../pseudos/'
/
&SYSTEM
   tot_charge       = 0.0
   ecutwfc          = 35.0
   ecutrho          = 140.0
   degauss          = 0.1
   smearing         = 'mv'
   ntyp             = 2
   nat              = 3
   ibrav            = 0
/
&ELECTRONS
   conv_thr         = 0.005
/
&IONS
   ion_dynamics     = 'bfgs'
/
&CELL
   cell_dynamics    = 'bfgs'
   cell_dofree      = 'all'
/

ATOMIC_SPECIES
Mo 95.95 Mo_ONCV_PBE-1.0.oncvpsp.upf
S 32.06 s_pbe_v1.4.uspp.F.UPF

K_POINTS gamma

CELL_PARAMETERS angstrom
3.19032000000000 0.00000000000000 0.00000000000000
-1.59516000000000 2.76289816620157 0.00000000000000
0.00000000000000 0.00000000000000 20.00000000000000

ATOMIC_POSITIONS angstrom
Mo -0.0000159516 1.8419413205 10.0000000000 
S 1.5951759516 0.9209568457 8.4352000000 
S 1.5951759516 0.9209568457 11.5648000000 

